50 121
1 27
2 6
2 21
2 27
2 38
2 47
3 11
3 15
3 33
3 37
3 41
3 42
3 49
4 6
4 15
4 21
4 23
4 30
4 38
4 44
5 34
5 43
5 44
6 19
6 24
6 34
6 36
6 37
6 40
7 10
7 14
7 31
7 37
7 41
7 44
8 23
8 27
8 33
8 40
8 43
9 12
9 36
9 46
9 48
10 20
11 20
11 26
11 33
11 34
11 35
12 39
12 44
12 46
12 47
13 15
13 45
13 46
14 21
14 23
14 24
14 25
14 30
14 33
14 43
14 45
15 23
15 27
15 44
15 46
16 20
16 39
17 39
17 46
18 20
18 21
18 35
18 39
18 50
19 24
19 34
19 40
19 47
20 44
21 24
21 25
21 26
21 36
21 37
22 25
22 49
23 24
23 36
23 40
24 38
26 27
27 29
27 30
27 33
27 41
28 41
30 37
30 42
30 43
30 46
30 49
31 45
33 40
33 44
33 50
34 35
34 48
35 41
35 46
36 44
36 46
38 46
39 44
39 49
43 50
44 47
48 50
